&control
!   max_seconds=30600
   verbosity='high'
   prefix = 'GaN'
   calculation = 'bands'
!   restart_mode = 'restart'
   restart_mode = 'from_scratch'
   wf_collect = .true.
   tstress = .false.
   tprnfor = .false.
!   outdir = './'
!   wfcdir = './'
!   pseudo_dir = './'
/
&system
!   tot_charge = +1
   ibrav = 0
!   occupations  = 'smearing'
!   smearing = 'gaussian'
!   degauss = 0.01
   nat = 192
   ntyp = 2
   nbnd = 441
   ecutwfc = 60.0
/
&electrons
!   startingwfc='file'
   electron_maxstep = 400
   diago_full_acc = .true.
   conv_thr = 1.0d-6
/
ATOMIC_SPECIES
  Ga 69.732 Ga.UPF
  N 14.007 N.UPF


CELL_PARAMETERS angstrom
       12.7959203720         0.0000000000         0.0000000000
       -6.3979601860        11.0815921070         0.0000000000
        0.0000000000         0.0000000000        15.5906095505

ATOMIC_POSITIONS crystal
Ga            0.0833330010         0.1666669990         0.3332819940
Ga            0.1666669990         0.0833330010         0.1666159930
Ga            0.0833330010         0.1666669990         0.6666160230
Ga            0.1666669990         0.0833330010         0.4999490080
Ga            0.0833330010         0.1666669990         0.9999489780
Ga            0.1666669990         0.0833330010         0.8332819940
Ga            0.0833330010         0.4166670140         0.3332819940
Ga            0.1666669990         0.3333329860         0.1666159930
Ga            0.0833330010         0.4166670140         0.6666160230
Ga            0.1666669990         0.3333329860         0.4999490080
Ga            0.0833330010         0.4166670140         0.9999489780
Ga            0.1666669990         0.3333329860         0.8332819940
Ga            0.0833330010         0.6666669850         0.3332819940
Ga            0.1666669990         0.5833330150         0.1666159930
Ga            0.0833330010         0.6666669850         0.6666160230
Ga            0.1666669990         0.5833330150         0.4999490080
Ga            0.0833330010         0.6666669850         0.9999489780
Ga            0.1666669990         0.5833330150         0.8332819940
Ga            0.0833330010         0.9166669850         0.3332819940
Ga            0.1666669990         0.8333330150         0.1666159930
Ga            0.0833330010         0.9166669850         0.6666160230
Ga            0.1666669990         0.8333330150         0.4999490080
Ga            0.0833330010         0.9166669850         0.9999489780
Ga            0.1666669990         0.8333330150         0.8332819940
Ga            0.3333329860         0.1666669990         0.3332819940
Ga            0.4166670140         0.0833330010         0.1666159930
Ga            0.3333329860         0.1666669990         0.6666160230
Ga            0.4166670140         0.0833330010         0.4999490080
Ga            0.3333329860         0.1666669990         0.9999489780
Ga            0.4166670140         0.0833330010         0.8332819940
Ga            0.3333329860         0.4166670140         0.3332819940
Ga            0.4166670140         0.3333329860         0.1666159930
Ga            0.3333329860         0.4166670140         0.6666160230
Ga            0.4166670140         0.3333329860         0.4999490080
Ga            0.3333329860         0.4166670140         0.9999489780
Ga            0.4166670140         0.3333329860         0.8332819940
Ga            0.3333329860         0.6666669850         0.3332819940
Ga            0.4166670140         0.5833330150         0.1666159930
Ga            0.3333329860         0.6666669850         0.6666160230
Ga            0.4166670140         0.5833330150         0.4999490080
Ga            0.3333329860         0.6666669850         0.9999489780
Ga            0.4166670140         0.5833330150         0.8332819940
Ga            0.3333329860         0.9166669850         0.3332819940
Ga            0.4166670140         0.8333330150         0.1666159930
Ga            0.3333329860         0.9166669850         0.6666160230
Ga            0.4166670140         0.8333330150         0.4999490080
Ga            0.3333329860         0.9166669850         0.9999489780
Ga            0.4166670140         0.8333330150         0.8332819940
Ga            0.5833330150         0.1666669990         0.3332819940
Ga            0.6666669850         0.0833330010         0.1666159930
Ga            0.5833330150         0.1666669990         0.6666160230
Ga            0.6666669850         0.0833330010         0.4999490080
Ga            0.5833330150         0.1666669990         0.9999489780
Ga            0.6666669850         0.0833330010         0.8332819940
Ga            0.5833330150         0.4166670140         0.3332819940
Ga            0.6666669850         0.3333329860         0.1666159930
Ga            0.5833330150         0.4166670140         0.6666160230
Ga            0.6666669850         0.3333329860         0.4999490080
Ga            0.5833330150         0.4166670140         0.9999489780
Ga            0.6666669850         0.3333329860         0.8332819940
Ga            0.5833330150         0.6666669850         0.3332819940
Ga            0.6666669850         0.5833330150         0.1666159930
Ga            0.5833330150         0.6666669850         0.6666160230
Ga            0.6666669850         0.5833330150         0.4999490080
Ga            0.5833330150         0.6666669850         0.9999489780
Ga            0.6666669850         0.5833330150         0.8332819940
Ga            0.5833330150         0.9166669850         0.3332819940
Ga            0.6666669850         0.8333330150         0.1666159930
Ga            0.5833330150         0.9166669850         0.6666160230
Ga            0.6666669850         0.8333330150         0.4999490080
Ga            0.5833330150         0.9166669850         0.9999489780
Ga            0.6666669850         0.8333330150         0.8332819940
Ga            0.8333330150         0.1666669990         0.3332819940
Ga            0.9166669850         0.0833330010         0.1666159930
Ga            0.8333330150         0.1666669990         0.6666160230
Ga            0.9166669850         0.0833330010         0.4999490080
Ga            0.8333330150         0.1666669990         0.9999489780
Ga            0.9166669850         0.0833330010         0.8332819940
Ga            0.8333330150         0.4166670140         0.3332819940
Ga            0.9166669850         0.3333329860         0.1666159930
Ga            0.8333330150         0.4166670140         0.6666160230
Ga            0.9166669850         0.3333329860         0.4999490080
Ga            0.8333330150         0.4166670140         0.9999489780
Ga            0.9166669850         0.3333329860         0.8332819940
Ga            0.8333330150         0.6666669850         0.3332819940
Ga            0.9166669850         0.5833330150         0.1666159930
Ga            0.8333330150         0.6666669850         0.6666160230
Ga            0.9166669850         0.5833330150         0.4999490080
Ga            0.8333330150         0.6666669850         0.9999489780
Ga            0.9166669850         0.5833330150         0.8332819940
Ga            0.8333330150         0.9166669850         0.3332819940
Ga            0.9166669850         0.8333330150         0.1666159930
Ga            0.8333330150         0.9166669850         0.6666160230
Ga            0.9166669850         0.8333330150         0.4999490080
Ga            0.8333330150         0.9166669850         0.9999489780
Ga            0.9166669850         0.8333330150         0.8332819940
N             0.0833330010         0.1666669990         0.1257179980
N             0.1666669990         0.0833330010         0.2923839990
N             0.0833330010         0.1666669990         0.4590510130
N             0.1666669990         0.0833330010         0.6257179980
N             0.0833330010         0.1666669990         0.7923840280
N             0.1666669990         0.0833330010         0.9590510130
N             0.0833330010         0.4166670140         0.1257179980
N             0.1666669990         0.3333329860         0.2923839990
N             0.0833330010         0.4166670140         0.4590510130
N             0.1666669990         0.3333329860         0.6257179980
N             0.0833330010         0.4166670140         0.7923840280
N             0.1666669990         0.3333329860         0.9590510130
N             0.0833330010         0.6666669850         0.1257179980
N             0.1666669990         0.5833330150         0.2923839990
N             0.0833330010         0.6666669850         0.4590510130
N             0.1666669990         0.5833330150         0.6257179980
N             0.0833330010         0.6666669850         0.7923840280
N             0.1666669990         0.5833330150         0.9590510130
N             0.0833330010         0.9166669850         0.1257179980
N             0.1666669990         0.8333330150         0.2923839990
N             0.0833330010         0.9166669850         0.4590510130
N             0.1666669990         0.8333330150         0.6257179980
N             0.0833330010         0.9166669850         0.7923840280
N             0.1666669990         0.8333330150         0.9590510130
N             0.3333329860         0.1666669990         0.1257179980
N             0.4166670140         0.0833330010         0.2923839990
N             0.3333329860         0.1666669990         0.4590510130
N             0.4166670140         0.0833330010         0.6257179980
N             0.3333329860         0.1666669990         0.7923840280
N             0.4166670140         0.0833330010         0.9590510130
N             0.3333329860         0.4166670140         0.1257179980
N             0.4166670140         0.3333329860         0.2923839990
N             0.3333329860         0.4166670140         0.4590510130
N             0.4166670140         0.3333329860         0.6257179980
N             0.3333329860         0.4166670140         0.7923840280
N             0.4166670140         0.3333329860         0.9590510130
N             0.3333329860         0.6666669850         0.1257179980
N             0.4166670140         0.5833330150         0.2923839990
N             0.3333329860         0.6666669850         0.4590510130
N             0.4166670140         0.5833330150         0.6257179980
N             0.3333329860         0.6666669850         0.7923840280
N             0.4166670140         0.5833330150         0.9590510130
N             0.3333329860         0.9166669850         0.1257179980
N             0.4166670140         0.8333330150         0.2923839990
N             0.3333329860         0.9166669850         0.4590510130
N             0.4166670140         0.8333330150         0.6257179980
N             0.3333329860         0.9166669850         0.7923840280
N             0.4166670140         0.8333330150         0.9590510130
N             0.5833330150         0.1666669990         0.1257179980
N             0.6666669850         0.0833330010         0.2923839990
N             0.5833330150         0.1666669990         0.4590510130
N             0.6666669850         0.0833330010         0.6257179980
N             0.5833330150         0.1666669990         0.7923840280
N             0.6666669850         0.0833330010         0.9590510130
N             0.5833330150         0.4166670140         0.1257179980
N             0.6666669850         0.3333329860         0.2923839990
N             0.5833330150         0.4166670140         0.4590510130
N             0.6666669850         0.3333329860         0.6257179980
N             0.5833330150         0.4166670140         0.7923840280
N             0.6666669850         0.3333329860         0.9590510130
N             0.5833330150         0.6666669850         0.1257179980
N             0.6666669850         0.5833330150         0.2923839990
N             0.5833330150         0.6666669850         0.4590510130
N             0.6666669850         0.5833330150         0.6257179980
N             0.5833330150         0.6666669850         0.7923840280
N             0.6666669850         0.5833330150         0.9590510130
N             0.5833330150         0.9166669850         0.1257179980
N             0.6666669850         0.8333330150         0.2923839990
N             0.5833330150         0.9166669850         0.4590510130
N             0.6666669850         0.8333330150         0.6257179980
N             0.5833330150         0.9166669850         0.7923840280
N             0.6666669850         0.8333330150         0.9590510130
N             0.8333330150         0.1666669990         0.1257179980
N             0.9166669850         0.0833330010         0.2923839990
N             0.8333330150         0.1666669990         0.4590510130
N             0.9166669850         0.0833330010         0.6257179980
N             0.8333330150         0.1666669990         0.7923840280
N             0.9166669850         0.0833330010         0.9590510130
N             0.8333330150         0.4166670140         0.1257179980
N             0.9166669850         0.3333329860         0.2923839990
N             0.8333330150         0.4166670140         0.4590510130
N             0.9166669850         0.3333329860         0.6257179980
N             0.8333330150         0.4166670140         0.7923840280
N             0.9166669850         0.3333329860         0.9590510130
N             0.8333330150         0.6666669850         0.1257179980
N             0.9166669850         0.5833330150         0.2923839990
N             0.8333330150         0.6666669850         0.4590510130
N             0.9166669850         0.5833330150         0.6257179980
N             0.8333330150         0.6666669850         0.7923840280
N             0.9166669850         0.5833330150         0.9590510130
N             0.8333330150         0.9166669850         0.1257179980
N             0.9166669850         0.8333330150         0.2923839990
N             0.8333330150         0.9166669850         0.4590510130
N             0.9166669850         0.8333330150         0.6257179980
N             0.8333330150         0.9166669850         0.7923840280
N             0.9166669850         0.8333330150         0.9590510130
K_POINTS crystal
 4096
  0.031250000  0.031250000  0.031250000   1.0
  0.031250000  0.031250000  0.093750000   1.0
  0.031250000  0.031250000  0.156250000   1.0
  0.031250000  0.031250000  0.218750000   1.0
  0.031250000  0.031250000  0.281250000   1.0
  0.031250000  0.031250000  0.343750000   1.0
  0.031250000  0.031250000  0.406250000   1.0
  0.031250000  0.031250000  0.468750000   1.0
  0.031250000  0.031250000  0.531250000   1.0
  0.031250000  0.031250000  0.593750000   1.0
  0.031250000  0.031250000  0.656250000   1.0
  0.031250000  0.031250000  0.718750000   1.0
  0.031250000  0.031250000  0.781250000   1.0
  0.031250000  0.031250000  0.843750000   1.0
  0.031250000  0.031250000  0.906250000   1.0
  0.031250000  0.031250000  0.968750000   1.0
  0.031250000  0.093750000  0.031250000   1.0
  0.031250000  0.093750000  0.093750000   1.0
  0.031250000  0.093750000  0.156250000   1.0
  0.031250000  0.093750000  0.218750000   1.0
  0.031250000  0.093750000  0.281250000   1.0
  0.031250000  0.093750000  0.343750000   1.0
  0.031250000  0.093750000  0.406250000   1.0
  0.031250000  0.093750000  0.468750000   1.0
  0.031250000  0.093750000  0.531250000   1.0
  0.031250000  0.093750000  0.593750000   1.0
  0.031250000  0.093750000  0.656250000   1.0
  0.031250000  0.093750000  0.718750000   1.0
  0.031250000  0.093750000  0.781250000   1.0
  0.031250000  0.093750000  0.843750000   1.0
  0.031250000  0.093750000  0.906250000   1.0
  0.031250000  0.093750000  0.968750000   1.0
  0.031250000  0.156250000  0.031250000   1.0
  0.031250000  0.156250000  0.093750000   1.0
  0.031250000  0.156250000  0.156250000   1.0
  0.031250000  0.156250000  0.218750000   1.0
  0.031250000  0.156250000  0.281250000   1.0
  0.031250000  0.156250000  0.343750000   1.0
  0.031250000  0.156250000  0.406250000   1.0
  0.031250000  0.156250000  0.468750000   1.0
  0.031250000  0.156250000  0.531250000   1.0
  0.031250000  0.156250000  0.593750000   1.0
  0.031250000  0.156250000  0.656250000   1.0
  0.031250000  0.156250000  0.718750000   1.0
  0.031250000  0.156250000  0.781250000   1.0
  0.031250000  0.156250000  0.843750000   1.0
  0.031250000  0.156250000  0.906250000   1.0
  0.031250000  0.156250000  0.968750000   1.0
  0.031250000  0.218750000  0.031250000   1.0
  0.031250000  0.218750000  0.093750000   1.0
  0.031250000  0.218750000  0.156250000   1.0
  0.031250000  0.218750000  0.218750000   1.0
  0.031250000  0.218750000  0.281250000   1.0
  0.031250000  0.218750000  0.343750000   1.0
  0.031250000  0.218750000  0.406250000   1.0
  0.031250000  0.218750000  0.468750000   1.0
  0.031250000  0.218750000  0.531250000   1.0
  0.031250000  0.218750000  0.593750000   1.0
  0.031250000  0.218750000  0.656250000   1.0
  0.031250000  0.218750000  0.718750000   1.0
  0.031250000  0.218750000  0.781250000   1.0
  0.031250000  0.218750000  0.843750000   1.0
  0.031250000  0.218750000  0.906250000   1.0
  0.031250000  0.218750000  0.968750000   1.0
  0.031250000  0.281250000  0.031250000   1.0
  0.031250000  0.281250000  0.093750000   1.0
  0.031250000  0.281250000  0.156250000   1.0
  0.031250000  0.281250000  0.218750000   1.0
  0.031250000  0.281250000  0.281250000   1.0
  0.031250000  0.281250000  0.343750000   1.0
  0.031250000  0.281250000  0.406250000   1.0
  0.031250000  0.281250000  0.468750000   1.0
  0.031250000  0.281250000  0.531250000   1.0
  0.031250000  0.281250000  0.593750000   1.0
  0.031250000  0.281250000  0.656250000   1.0
  0.031250000  0.281250000  0.718750000   1.0
  0.031250000  0.281250000  0.781250000   1.0
  0.031250000  0.281250000  0.843750000   1.0
  0.031250000  0.281250000  0.906250000   1.0
  0.031250000  0.281250000  0.968750000   1.0
  0.031250000  0.343750000  0.031250000   1.0
  0.031250000  0.343750000  0.093750000   1.0
  0.031250000  0.343750000  0.156250000   1.0
  0.031250000  0.343750000  0.218750000   1.0
  0.031250000  0.343750000  0.281250000   1.0
  0.031250000  0.343750000  0.343750000   1.0
  0.031250000  0.343750000  0.406250000   1.0
  0.031250000  0.343750000  0.468750000   1.0
  0.031250000  0.343750000  0.531250000   1.0
  0.031250000  0.343750000  0.593750000   1.0
  0.031250000  0.343750000  0.656250000   1.0
  0.031250000  0.343750000  0.718750000   1.0
  0.031250000  0.343750000  0.781250000   1.0
  0.031250000  0.343750000  0.843750000   1.0
  0.031250000  0.343750000  0.906250000   1.0
  0.031250000  0.343750000  0.968750000   1.0
  0.031250000  0.406250000  0.031250000   1.0
  0.031250000  0.406250000  0.093750000   1.0
  0.031250000  0.406250000  0.156250000   1.0
  0.031250000  0.406250000  0.218750000   1.0
  0.031250000  0.406250000  0.281250000   1.0
  0.031250000  0.406250000  0.343750000   1.0
  0.031250000  0.406250000  0.406250000   1.0
  0.031250000  0.406250000  0.468750000   1.0
  0.031250000  0.406250000  0.531250000   1.0
  0.031250000  0.406250000  0.593750000   1.0
  0.031250000  0.406250000  0.656250000   1.0
  0.031250000  0.406250000  0.718750000   1.0
  0.031250000  0.406250000  0.781250000   1.0
  0.031250000  0.406250000  0.843750000   1.0
  0.031250000  0.406250000  0.906250000   1.0
  0.031250000  0.406250000  0.968750000   1.0
  0.031250000  0.468750000  0.031250000   1.0
  0.031250000  0.468750000  0.093750000   1.0
  0.031250000  0.468750000  0.156250000   1.0
  0.031250000  0.468750000  0.218750000   1.0
  0.031250000  0.468750000  0.281250000   1.0
  0.031250000  0.468750000  0.343750000   1.0
  0.031250000  0.468750000  0.406250000   1.0
  0.031250000  0.468750000  0.468750000   1.0
  0.031250000  0.468750000  0.531250000   1.0
  0.031250000  0.468750000  0.593750000   1.0
  0.031250000  0.468750000  0.656250000   1.0
  0.031250000  0.468750000  0.718750000   1.0
  0.031250000  0.468750000  0.781250000   1.0
  0.031250000  0.468750000  0.843750000   1.0
  0.031250000  0.468750000  0.906250000   1.0
  0.031250000  0.468750000  0.968750000   1.0
  0.031250000  0.531250000  0.031250000   1.0
  0.031250000  0.531250000  0.093750000   1.0
  0.031250000  0.531250000  0.156250000   1.0
  0.031250000  0.531250000  0.218750000   1.0
  0.031250000  0.531250000  0.281250000   1.0
  0.031250000  0.531250000  0.343750000   1.0
  0.031250000  0.531250000  0.406250000   1.0
  0.031250000  0.531250000  0.468750000   1.0
  0.031250000  0.531250000  0.531250000   1.0
  0.031250000  0.531250000  0.593750000   1.0
  0.031250000  0.531250000  0.656250000   1.0
  0.031250000  0.531250000  0.718750000   1.0
  0.031250000  0.531250000  0.781250000   1.0
  0.031250000  0.531250000  0.843750000   1.0
  0.031250000  0.531250000  0.906250000   1.0
  0.031250000  0.531250000  0.968750000   1.0
  0.031250000  0.593750000  0.031250000   1.0
  0.031250000  0.593750000  0.093750000   1.0
  0.031250000  0.593750000  0.156250000   1.0
  0.031250000  0.593750000  0.218750000   1.0
  0.031250000  0.593750000  0.281250000   1.0
  0.031250000  0.593750000  0.343750000   1.0
  0.031250000  0.593750000  0.406250000   1.0
  0.031250000  0.593750000  0.468750000   1.0
  0.031250000  0.593750000  0.531250000   1.0
  0.031250000  0.593750000  0.593750000   1.0
  0.031250000  0.593750000  0.656250000   1.0
  0.031250000  0.593750000  0.718750000   1.0
  0.031250000  0.593750000  0.781250000   1.0
  0.031250000  0.593750000  0.843750000   1.0
  0.031250000  0.593750000  0.906250000   1.0
  0.031250000  0.593750000  0.968750000   1.0
  0.031250000  0.656250000  0.031250000   1.0
  0.031250000  0.656250000  0.093750000   1.0
  0.031250000  0.656250000  0.156250000   1.0
  0.031250000  0.656250000  0.218750000   1.0
  0.031250000  0.656250000  0.281250000   1.0
  0.031250000  0.656250000  0.343750000   1.0
  0.031250000  0.656250000  0.406250000   1.0
  0.031250000  0.656250000  0.468750000   1.0
  0.031250000  0.656250000  0.531250000   1.0
  0.031250000  0.656250000  0.593750000   1.0
  0.031250000  0.656250000  0.656250000   1.0
  0.031250000  0.656250000  0.718750000   1.0
  0.031250000  0.656250000  0.781250000   1.0
  0.031250000  0.656250000  0.843750000   1.0
  0.031250000  0.656250000  0.906250000   1.0
  0.031250000  0.656250000  0.968750000   1.0
  0.031250000  0.718750000  0.031250000   1.0
  0.031250000  0.718750000  0.093750000   1.0
  0.031250000  0.718750000  0.156250000   1.0
  0.031250000  0.718750000  0.218750000   1.0
  0.031250000  0.718750000  0.281250000   1.0
  0.031250000  0.718750000  0.343750000   1.0
  0.031250000  0.718750000  0.406250000   1.0
  0.031250000  0.718750000  0.468750000   1.0
  0.031250000  0.718750000  0.531250000   1.0
  0.031250000  0.718750000  0.593750000   1.0
  0.031250000  0.718750000  0.656250000   1.0
  0.031250000  0.718750000  0.718750000   1.0
  0.031250000  0.718750000  0.781250000   1.0
  0.031250000  0.718750000  0.843750000   1.0
  0.031250000  0.718750000  0.906250000   1.0
  0.031250000  0.718750000  0.968750000   1.0
  0.031250000  0.781250000  0.031250000   1.0
  0.031250000  0.781250000  0.093750000   1.0
  0.031250000  0.781250000  0.156250000   1.0
  0.031250000  0.781250000  0.218750000   1.0
  0.031250000  0.781250000  0.281250000   1.0
  0.031250000  0.781250000  0.343750000   1.0
  0.031250000  0.781250000  0.406250000   1.0
  0.031250000  0.781250000  0.468750000   1.0
  0.031250000  0.781250000  0.531250000   1.0
  0.031250000  0.781250000  0.593750000   1.0
  0.031250000  0.781250000  0.656250000   1.0
  0.031250000  0.781250000  0.718750000   1.0
  0.031250000  0.781250000  0.781250000   1.0
  0.031250000  0.781250000  0.843750000   1.0
  0.031250000  0.781250000  0.906250000   1.0
  0.031250000  0.781250000  0.968750000   1.0
  0.031250000  0.843750000  0.031250000   1.0
  0.031250000  0.843750000  0.093750000   1.0
  0.031250000  0.843750000  0.156250000   1.0
  0.031250000  0.843750000  0.218750000   1.0
  0.031250000  0.843750000  0.281250000   1.0
  0.031250000  0.843750000  0.343750000   1.0
  0.031250000  0.843750000  0.406250000   1.0
  0.031250000  0.843750000  0.468750000   1.0
  0.031250000  0.843750000  0.531250000   1.0
  0.031250000  0.843750000  0.593750000   1.0
  0.031250000  0.843750000  0.656250000   1.0
  0.031250000  0.843750000  0.718750000   1.0
  0.031250000  0.843750000  0.781250000   1.0
  0.031250000  0.843750000  0.843750000   1.0
  0.031250000  0.843750000  0.906250000   1.0
  0.031250000  0.843750000  0.968750000   1.0
  0.031250000  0.906250000  0.031250000   1.0
  0.031250000  0.906250000  0.093750000   1.0
  0.031250000  0.906250000  0.156250000   1.0
  0.031250000  0.906250000  0.218750000   1.0
  0.031250000  0.906250000  0.281250000   1.0
  0.031250000  0.906250000  0.343750000   1.0
  0.031250000  0.906250000  0.406250000   1.0
  0.031250000  0.906250000  0.468750000   1.0
  0.031250000  0.906250000  0.531250000   1.0
  0.031250000  0.906250000  0.593750000   1.0
  0.031250000  0.906250000  0.656250000   1.0
  0.031250000  0.906250000  0.718750000   1.0
  0.031250000  0.906250000  0.781250000   1.0
  0.031250000  0.906250000  0.843750000   1.0
  0.031250000  0.906250000  0.906250000   1.0
  0.031250000  0.906250000  0.968750000   1.0
  0.031250000  0.968750000  0.031250000   1.0
  0.031250000  0.968750000  0.093750000   1.0
  0.031250000  0.968750000  0.156250000   1.0
  0.031250000  0.968750000  0.218750000   1.0
  0.031250000  0.968750000  0.281250000   1.0
  0.031250000  0.968750000  0.343750000   1.0
  0.031250000  0.968750000  0.406250000   1.0
  0.031250000  0.968750000  0.468750000   1.0
  0.031250000  0.968750000  0.531250000   1.0
  0.031250000  0.968750000  0.593750000   1.0
  0.031250000  0.968750000  0.656250000   1.0
  0.031250000  0.968750000  0.718750000   1.0
  0.031250000  0.968750000  0.781250000   1.0
  0.031250000  0.968750000  0.843750000   1.0
  0.031250000  0.968750000  0.906250000   1.0
  0.031250000  0.968750000  0.968750000   1.0
  0.093750000  0.031250000  0.031250000   1.0
  0.093750000  0.031250000  0.093750000   1.0
  0.093750000  0.031250000  0.156250000   1.0
  0.093750000  0.031250000  0.218750000   1.0
  0.093750000  0.031250000  0.281250000   1.0
  0.093750000  0.031250000  0.343750000   1.0
  0.093750000  0.031250000  0.406250000   1.0
  0.093750000  0.031250000  0.468750000   1.0
  0.093750000  0.031250000  0.531250000   1.0
  0.093750000  0.031250000  0.593750000   1.0
  0.093750000  0.031250000  0.656250000   1.0
  0.093750000  0.031250000  0.718750000   1.0
  0.093750000  0.031250000  0.781250000   1.0
  0.093750000  0.031250000  0.843750000   1.0
  0.093750000  0.031250000  0.906250000   1.0
  0.093750000  0.031250000  0.968750000   1.0
  0.093750000  0.093750000  0.031250000   1.0
  0.093750000  0.093750000  0.093750000   1.0
  0.093750000  0.093750000  0.156250000   1.0
  0.093750000  0.093750000  0.218750000   1.0
  0.093750000  0.093750000  0.281250000   1.0
  0.093750000  0.093750000  0.343750000   1.0
  0.093750000  0.093750000  0.406250000   1.0
  0.093750000  0.093750000  0.468750000   1.0
  0.093750000  0.093750000  0.531250000   1.0
  0.093750000  0.093750000  0.593750000   1.0
  0.093750000  0.093750000  0.656250000   1.0
  0.093750000  0.093750000  0.718750000   1.0
  0.093750000  0.093750000  0.781250000   1.0
  0.093750000  0.093750000  0.843750000   1.0
  0.093750000  0.093750000  0.906250000   1.0
  0.093750000  0.093750000  0.968750000   1.0
  0.093750000  0.156250000  0.031250000   1.0
  0.093750000  0.156250000  0.093750000   1.0
  0.093750000  0.156250000  0.156250000   1.0
  0.093750000  0.156250000  0.218750000   1.0
  0.093750000  0.156250000  0.281250000   1.0
  0.093750000  0.156250000  0.343750000   1.0
  0.093750000  0.156250000  0.406250000   1.0
  0.093750000  0.156250000  0.468750000   1.0
  0.093750000  0.156250000  0.531250000   1.0
  0.093750000  0.156250000  0.593750000   1.0
  0.093750000  0.156250000  0.656250000   1.0
  0.093750000  0.156250000  0.718750000   1.0
  0.093750000  0.156250000  0.781250000   1.0
  0.093750000  0.156250000  0.843750000   1.0
  0.093750000  0.156250000  0.906250000   1.0
  0.093750000  0.156250000  0.968750000   1.0
  0.093750000  0.218750000  0.031250000   1.0
  0.093750000  0.218750000  0.093750000   1.0
  0.093750000  0.218750000  0.156250000   1.0
  0.093750000  0.218750000  0.218750000   1.0
  0.093750000  0.218750000  0.281250000   1.0
  0.093750000  0.218750000  0.343750000   1.0
  0.093750000  0.218750000  0.406250000   1.0
  0.093750000  0.218750000  0.468750000   1.0
  0.093750000  0.218750000  0.531250000   1.0
  0.093750000  0.218750000  0.593750000   1.0
  0.093750000  0.218750000  0.656250000   1.0
  0.093750000  0.218750000  0.718750000   1.0
  0.093750000  0.218750000  0.781250000   1.0
  0.093750000  0.218750000  0.843750000   1.0
  0.093750000  0.218750000  0.906250000   1.0
  0.093750000  0.218750000  0.968750000   1.0
  0.093750000  0.281250000  0.031250000   1.0
  0.093750000  0.281250000  0.093750000   1.0
  0.093750000  0.281250000  0.156250000   1.0
  0.093750000  0.281250000  0.218750000   1.0
  0.093750000  0.281250000  0.281250000   1.0
  0.093750000  0.281250000  0.343750000   1.0
  0.093750000  0.281250000  0.406250000   1.0
  0.093750000  0.281250000  0.468750000   1.0
  0.093750000  0.281250000  0.531250000   1.0
  0.093750000  0.281250000  0.593750000   1.0
  0.093750000  0.281250000  0.656250000   1.0
  0.093750000  0.281250000  0.718750000   1.0
  0.093750000  0.281250000  0.781250000   1.0
  0.093750000  0.281250000  0.843750000   1.0
  0.093750000  0.281250000  0.906250000   1.0
  0.093750000  0.281250000  0.968750000   1.0
  0.093750000  0.343750000  0.031250000   1.0
  0.093750000  0.343750000  0.093750000   1.0
  0.093750000  0.343750000  0.156250000   1.0
  0.093750000  0.343750000  0.218750000   1.0
  0.093750000  0.343750000  0.281250000   1.0
  0.093750000  0.343750000  0.343750000   1.0
  0.093750000  0.343750000  0.406250000   1.0
  0.093750000  0.343750000  0.468750000   1.0
  0.093750000  0.343750000  0.531250000   1.0